n= 4
m= 30
1000
2000
2500
3000
137	18	6
290	24	6
256	15	5
168	8	8
454	7	7
91	36	9
143	32	8
29	18	6
386	14	7
467	20	5
314	7	7
366	21	7
169	36	9
389	18	9
217	24	8
340	28	7
142	10	5
168	36	9
159	7	7
415	27	9
381	9	9
405	15	5
247	9	9
209	27	9
263	8	8
344	5	5
179	24	8
141	7	7
261	21	7
261	18	6
